NAME          BLANK   
ROWS
 N  OBJROW
 L  R0000000
COLUMNS
    C0000000  OBJROW     -318.         R0000000  766.        
    C0000001  OBJROW     -164.         R0000000  911.        
    C0000002  OBJROW     -918.         R0000000  410.        
    C0000003  OBJROW     -679.         R0000000  762.        
    C0000004  OBJROW     -437.         R0000000  25.         
    C0000005  OBJROW     -980.         R0000000  590.        
    C0000006  OBJROW     -230.         R0000000  171.        
    C0000007  OBJROW     -279.         R0000000  891.        
    C0000008  OBJROW     -560.         R0000000  812.        
    C0000009  OBJROW     -782.         R0000000  154.        
    C0000010  OBJROW     -494.         R0000000  675.        
    C0000011  OBJROW     -14.          R0000000  377.        
    C0000012  OBJROW     -769.         R0000000  593.        
    C0000013  OBJROW     -802.         R0000000  739.        
    C0000014  OBJROW     -545.         R0000000  70.         
    C0000015  OBJROW     -353.         R0000000  465.        
RHS
    RHS       R0000000  15314.      
BOUNDS
 BV BOUND     C0000000  1.          
 BV BOUND     C0000001  1.          
 BV BOUND     C0000002  1.          
 BV BOUND     C0000003  1.          
 BV BOUND     C0000004  1.          
 BV BOUND     C0000005  1.          
 BV BOUND     C0000006  1.          
 BV BOUND     C0000007  1.          
 BV BOUND     C0000008  1.          
 BV BOUND     C0000009  1.          
 BV BOUND     C0000010  1.          
 BV BOUND     C0000011  1.          
 BV BOUND     C0000012  1.          
 BV BOUND     C0000013  1.          
 BV BOUND     C0000014  1.          
 BV BOUND     C0000015  1.          
ENDATA
